
  32    4
  10   10   10   10

   0   0   0   0   0  12 2 4 5 6 7 8 10 11 12 15 16 18 
   2   1   1   1   0   5 30 28 21 14 3 
   2   2   5   4   0   6 31 29 27 22 17 9 
   4   4   5   0   1   6 27 22 21 20 17 13 
   6   2   4   6   0   7 30 29 27 26 25 21 19 
   9   0   7   4   5   5 28 25 21 20 13 
   2   5   0   1   4   5 27 25 21 20 13 
   1   3   0   4   7   4 28 22 21 17 
   9   2   0   5   6   3 25 20 13 
   6   5   1   0   4   2 29 13 
   5   0   4   2   2   4 30 27 23 19 
   9   4   4   3   0   4 26 25 23 19 
   4   0   7   5   4   3 26 23 19 
   1   4   5   4   0   3 25 24 20 
   2   3   3   3   0   3 31 28 21 
   3   6   3   0   3   3 26 25 20 
   4   4   0   5   5   3 25 24 23 
   6   0   4   3   5   2 25 24 
  10   0   2   9  10   1 24 
   8   6   0   6   4   1 23 
  10   5   1   4   0   1 23 
   1   0   3   4   3   1 24 
   7   5   0   7   1   1 32
   1   4   0   5   3   1 32
  10   6   0   6   2   1 32
   5   4   0   4   1   1 32
   2   4   0   2   5   1 32
   1   0  10   4   3   1 32
   6   0   3   4   6   1 32
   8   0   4   1   3   1 32
   9   5   0   2   5   1 32
   0   0   0   0   0   0 
